(declare-fun bvlambda_4_ () (_ BitVec 1))
(declare-fun a48 () (Array (_ BitVec 1) (_ BitVec 4)))
(assert
(let (($e1 (_ bv0 1)))
(let (($e15 (_ bv0 4)))
(let (($e17 (_ bv6 4)))
(let (($e35 (_ bv14 7)))
(let (($e76 (store a48 (bvnot $e1) (bvnot $e15))))
(let (($e77 (store $e76 bvlambda_4_ $e17)))
(let (($e78 (select $e77 (bvnot $e1))))
(let (($e79 (concat $e15 $e78)))
(let (($e83             $e79 ))
(let (($e85                            $e83  ))
(let (($e86 ((_ extract 6 0) $e85)))
                 (bvult $e86        $e35 )
                                                                                                                                                               )) )   ))))                         )                 ) )             ))
